136967
104,38,105,101,3,94,78,96,60,91,79,43,58,1,87,44,66,59,10,27,28,76,24,102,74,83,57,80,89,93,12,23,92,8,106,97,55,29,30,5,52,65,31,98,13,88,69,6,40,56,20,16,64,90,17,21,77,46,86,81,42,19,9,34,26,50,68,99,14,47,61,103,4,15,75,35,63,32,18,70,37,39,49,7,53,84,33,82,72,51,100,45,25,62,22,2,73,48,85,36,71,54,95,67,41,11,104